p cnf 225 576
c weights 1.0 1.0 2.718281828459045 0.36787944117144233 2.718281828459045 0.36787944117144233 1.0 1.0 2.718281828459045 0.36787944117144233 2.718281828459045 0.36787944117144233 1.0 1.0 2.718281828459045 0.36787944117144233 2.718281828459045 0.36787944117144233 1.0 1.0 2.718281828459045 0.36787944117144233 2.718281828459045 0.36787944117144233 1.0 1.0 2.718281828459045 0.36787944117144233 2.718281828459045 0.36787944117144233 1.0 1.0 2.718281828459045 0.36787944117144233 2.718281828459045 0.36787944117144233 1.0 1.0 2.718281828459045 0.36787944117144233 2.718281828459045 0.36787944117144233 1.0 1.0 2.718281828459045 0.36787944117144233 2.718281828459045 0.36787944117144233 1.0 1.0 2.718281828459045 0.36787944117144233 1.0 1.0 2.718281828459045 0.36787944117144233 2.718281828459045 0.36787944117144233 1.0 1.0 2.718281828459045 0.36787944117144233 2.718281828459045 0.36787944117144233 1.0 1.0 2.718281828459045 0.36787944117144233 2.718281828459045 0.36787944117144233 1.0 1.0 2.718281828459045 0.36787944117144233 2.718281828459045 0.36787944117144233 1.0 1.0 2.718281828459045 0.36787944117144233 2.718281828459045 0.36787944117144233 1.0 1.0 2.718281828459045 0.36787944117144233 2.718281828459045 0.36787944117144233 1.0 1.0 2.718281828459045 0.36787944117144233 2.718281828459045 0.36787944117144233 1.0 1.0 2.718281828459045 0.36787944117144233 2.718281828459045 0.36787944117144233 1.0 1.0 2.718281828459045 0.36787944117144233 1.0 1.0 2.718281828459045 0.36787944117144233 2.718281828459045 0.36787944117144233 1.0 1.0 2.718281828459045 0.36787944117144233 2.718281828459045 0.36787944117144233 1.0 1.0 2.718281828459045 0.36787944117144233 2.718281828459045 0.36787944117144233 1.0 1.0 2.718281828459045 0.36787944117144233 2.718281828459045 0.36787944117144233 1.0 1.0 2.718281828459045 0.36787944117144233 2.718281828459045 0.36787944117144233 1.0 1.0 2.718281828459045 0.36787944117144233 2.718281828459045 0.36787944117144233 1.0 1.0 2.718281828459045 0.36787944117144233 2.718281828459045 0.36787944117144233 1.0 1.0 2.718281828459045 0.36787944117144233 2.718281828459045 0.36787944117144233 1.0 1.0 2.718281828459045 0.36787944117144233 1.0 1.0 2.718281828459045 0.36787944117144233 2.718281828459045 0.36787944117144233 1.0 1.0 2.718281828459045 0.36787944117144233 2.718281828459045 0.36787944117144233 1.0 1.0 2.718281828459045 0.36787944117144233 2.718281828459045 0.36787944117144233 1.0 1.0 2.718281828459045 0.36787944117144233 2.718281828459045 0.36787944117144233 1.0 1.0 2.718281828459045 0.36787944117144233 2.718281828459045 0.36787944117144233 1.0 1.0 2.718281828459045 0.36787944117144233 2.718281828459045 0.36787944117144233 1.0 1.0 2.718281828459045 0.36787944117144233 2.718281828459045 0.36787944117144233 1.0 1.0 2.718281828459045 0.36787944117144233 2.718281828459045 0.36787944117144233 1.0 1.0 2.718281828459045 0.36787944117144233 1.0 1.0 2.718281828459045 0.36787944117144233 2.718281828459045 0.36787944117144233 1.0 1.0 2.718281828459045 0.36787944117144233 2.718281828459045 0.36787944117144233 1.0 1.0 2.718281828459045 0.36787944117144233 2.718281828459045 0.36787944117144233 1.0 1.0 2.718281828459045 0.36787944117144233 2.718281828459045 0.36787944117144233 1.0 1.0 2.718281828459045 0.36787944117144233 2.718281828459045 0.36787944117144233 1.0 1.0 2.718281828459045 0.36787944117144233 2.718281828459045 0.36787944117144233 1.0 1.0 2.718281828459045 0.36787944117144233 2.718281828459045 0.36787944117144233 1.0 1.0 2.718281828459045 0.36787944117144233 2.718281828459045 0.36787944117144233 1.0 1.0 2.718281828459045 0.36787944117144233 1.0 1.0 2.718281828459045 0.36787944117144233 2.718281828459045 0.36787944117144233 1.0 1.0 2.718281828459045 0.36787944117144233 2.718281828459045 0.36787944117144233 1.0 1.0 2.718281828459045 0.36787944117144233 2.718281828459045 0.36787944117144233 1.0 1.0 2.718281828459045 0.36787944117144233 2.718281828459045 0.36787944117144233 1.0 1.0 2.718281828459045 0.36787944117144233 2.718281828459045 0.36787944117144233 1.0 1.0 2.718281828459045 0.36787944117144233 2.718281828459045 0.36787944117144233 1.0 1.0 2.718281828459045 0.36787944117144233 2.718281828459045 0.36787944117144233 1.0 1.0 2.718281828459045 0.36787944117144233 2.718281828459045 0.36787944117144233 1.0 1.0 2.718281828459045 0.36787944117144233 1.0 1.0 2.718281828459045 0.36787944117144233 2.718281828459045 0.36787944117144233 1.0 1.0 2.718281828459045 0.36787944117144233 2.718281828459045 0.36787944117144233 1.0 1.0 2.718281828459045 0.36787944117144233 2.718281828459045 0.36787944117144233 1.0 1.0 2.718281828459045 0.36787944117144233 2.718281828459045 0.36787944117144233 1.0 1.0 2.718281828459045 0.36787944117144233 2.718281828459045 0.36787944117144233 1.0 1.0 2.718281828459045 0.36787944117144233 2.718281828459045 0.36787944117144233 1.0 1.0 2.718281828459045 0.36787944117144233 2.718281828459045 0.36787944117144233 1.0 1.0 2.718281828459045 0.36787944117144233 2.718281828459045 0.36787944117144233 1.0 1.0 2.718281828459045 0.36787944117144233 1.0 1.0 2.718281828459045 0.36787944117144233 2.718281828459045 0.36787944117144233 1.0 1.0 2.718281828459045 0.36787944117144233 2.718281828459045 0.36787944117144233 1.0 1.0 2.718281828459045 0.36787944117144233 2.718281828459045 0.36787944117144233 1.0 1.0 2.718281828459045 0.36787944117144233 2.718281828459045 0.36787944117144233 1.0 1.0 2.718281828459045 0.36787944117144233 2.718281828459045 0.36787944117144233 1.0 1.0 2.718281828459045 0.36787944117144233 2.718281828459045 0.36787944117144233 1.0 1.0 2.718281828459045 0.36787944117144233 2.718281828459045 0.36787944117144233 1.0 1.0 2.718281828459045 0.36787944117144233 2.718281828459045 0.36787944117144233 1.0 1.0 2.718281828459045 0.36787944117144233 1.0 1.0 2.718281828459045 0.36787944117144233 1.0 1.0 2.718281828459045 0.36787944117144233 1.0 1.0 2.718281828459045 0.36787944117144233 1.0 1.0 2.718281828459045 0.36787944117144233 1.0 1.0 2.718281828459045 0.36787944117144233 1.0 1.0 2.718281828459045 0.36787944117144233 1.0 1.0 2.718281828459045 0.36787944117144233 1.0 1.0 2.718281828459045 0.36787944117144233 1.0 1.0
2 1 4 0
2 -1 -4 0
-2 1 -4 0
-2 -1 4 0
3 1 27 0
3 -1 -27 0
-3 1 -27 0
-3 -1 27 0
5 4 7 0
5 -4 -7 0
-5 4 -7 0
-5 -4 7 0
6 4 30 0
6 -4 -30 0
-6 4 -30 0
-6 -4 30 0
8 7 10 0
8 -7 -10 0
-8 7 -10 0
-8 -7 10 0
9 7 33 0
9 -7 -33 0
-9 7 -33 0
-9 -7 33 0
11 10 13 0
11 -10 -13 0
-11 10 -13 0
-11 -10 13 0
12 10 36 0
12 -10 -36 0
-12 10 -36 0
-12 -10 36 0
14 13 16 0
14 -13 -16 0
-14 13 -16 0
-14 -13 16 0
15 13 39 0
15 -13 -39 0
-15 13 -39 0
-15 -13 39 0
17 16 19 0
17 -16 -19 0
-17 16 -19 0
-17 -16 19 0
18 16 42 0
18 -16 -42 0
-18 16 -42 0
-18 -16 42 0
20 19 22 0
20 -19 -22 0
-20 19 -22 0
-20 -19 22 0
21 19 45 0
21 -19 -45 0
-21 19 -45 0
-21 -19 45 0
23 22 25 0
23 -22 -25 0
-23 22 -25 0
-23 -22 25 0
24 22 48 0
24 -22 -48 0
-24 22 -48 0
-24 -22 48 0
26 25 51 0
26 -25 -51 0
-26 25 -51 0
-26 -25 51 0
28 27 30 0
28 -27 -30 0
-28 27 -30 0
-28 -27 30 0
29 27 53 0
29 -27 -53 0
-29 27 -53 0
-29 -27 53 0
31 30 33 0
31 -30 -33 0
-31 30 -33 0
-31 -30 33 0
32 30 56 0
32 -30 -56 0
-32 30 -56 0
-32 -30 56 0
34 33 36 0
34 -33 -36 0
-34 33 -36 0
-34 -33 36 0
35 33 59 0
35 -33 -59 0
-35 33 -59 0
-35 -33 59 0
37 36 39 0
37 -36 -39 0
-37 36 -39 0
-37 -36 39 0
38 36 62 0
38 -36 -62 0
-38 36 -62 0
-38 -36 62 0
40 39 42 0
40 -39 -42 0
-40 39 -42 0
-40 -39 42 0
41 39 65 0
41 -39 -65 0
-41 39 -65 0
-41 -39 65 0
43 42 45 0
43 -42 -45 0
-43 42 -45 0
-43 -42 45 0
44 42 68 0
44 -42 -68 0
-44 42 -68 0
-44 -42 68 0
46 45 48 0
46 -45 -48 0
-46 45 -48 0
-46 -45 48 0
47 45 71 0
47 -45 -71 0
-47 45 -71 0
-47 -45 71 0
49 48 51 0
49 -48 -51 0
-49 48 -51 0
-49 -48 51 0
50 48 74 0
50 -48 -74 0
-50 48 -74 0
-50 -48 74 0
52 51 77 0
52 -51 -77 0
-52 51 -77 0
-52 -51 77 0
54 53 56 0
54 -53 -56 0
-54 53 -56 0
-54 -53 56 0
55 53 79 0
55 -53 -79 0
-55 53 -79 0
-55 -53 79 0
57 56 59 0
57 -56 -59 0
-57 56 -59 0
-57 -56 59 0
58 56 82 0
58 -56 -82 0
-58 56 -82 0
-58 -56 82 0
60 59 62 0
60 -59 -62 0
-60 59 -62 0
-60 -59 62 0
61 59 85 0
61 -59 -85 0
-61 59 -85 0
-61 -59 85 0
63 62 65 0
63 -62 -65 0
-63 62 -65 0
-63 -62 65 0
64 62 88 0
64 -62 -88 0
-64 62 -88 0
-64 -62 88 0
66 65 68 0
66 -65 -68 0
-66 65 -68 0
-66 -65 68 0
67 65 91 0
67 -65 -91 0
-67 65 -91 0
-67 -65 91 0
69 68 71 0
69 -68 -71 0
-69 68 -71 0
-69 -68 71 0
70 68 94 0
70 -68 -94 0
-70 68 -94 0
-70 -68 94 0
72 71 74 0
72 -71 -74 0
-72 71 -74 0
-72 -71 74 0
73 71 97 0
73 -71 -97 0
-73 71 -97 0
-73 -71 97 0
75 74 77 0
75 -74 -77 0
-75 74 -77 0
-75 -74 77 0
76 74 100 0
76 -74 -100 0
-76 74 -100 0
-76 -74 100 0
78 77 103 0
78 -77 -103 0
-78 77 -103 0
-78 -77 103 0
80 79 82 0
80 -79 -82 0
-80 79 -82 0
-80 -79 82 0
81 79 105 0
81 -79 -105 0
-81 79 -105 0
-81 -79 105 0
83 82 85 0
83 -82 -85 0
-83 82 -85 0
-83 -82 85 0
84 82 108 0
84 -82 -108 0
-84 82 -108 0
-84 -82 108 0
86 85 88 0
86 -85 -88 0
-86 85 -88 0
-86 -85 88 0
87 85 111 0
87 -85 -111 0
-87 85 -111 0
-87 -85 111 0
89 88 91 0
89 -88 -91 0
-89 88 -91 0
-89 -88 91 0
90 88 114 0
90 -88 -114 0
-90 88 -114 0
-90 -88 114 0
92 91 94 0
92 -91 -94 0
-92 91 -94 0
-92 -91 94 0
93 91 117 0
93 -91 -117 0
-93 91 -117 0
-93 -91 117 0
95 94 97 0
95 -94 -97 0
-95 94 -97 0
-95 -94 97 0
96 94 120 0
96 -94 -120 0
-96 94 -120 0
-96 -94 120 0
98 97 100 0
98 -97 -100 0
-98 97 -100 0
-98 -97 100 0
99 97 123 0
99 -97 -123 0
-99 97 -123 0
-99 -97 123 0
101 100 103 0
101 -100 -103 0
-101 100 -103 0
-101 -100 103 0
102 100 126 0
102 -100 -126 0
-102 100 -126 0
-102 -100 126 0
104 103 129 0
104 -103 -129 0
-104 103 -129 0
-104 -103 129 0
106 105 108 0
106 -105 -108 0
-106 105 -108 0
-106 -105 108 0
107 105 131 0
107 -105 -131 0
-107 105 -131 0
-107 -105 131 0
109 108 111 0
109 -108 -111 0
-109 108 -111 0
-109 -108 111 0
110 108 134 0
110 -108 -134 0
-110 108 -134 0
-110 -108 134 0
112 111 114 0
112 -111 -114 0
-112 111 -114 0
-112 -111 114 0
113 111 137 0
113 -111 -137 0
-113 111 -137 0
-113 -111 137 0
115 114 117 0
115 -114 -117 0
-115 114 -117 0
-115 -114 117 0
116 114 140 0
116 -114 -140 0
-116 114 -140 0
-116 -114 140 0
118 117 120 0
118 -117 -120 0
-118 117 -120 0
-118 -117 120 0
119 117 143 0
119 -117 -143 0
-119 117 -143 0
-119 -117 143 0
121 120 123 0
121 -120 -123 0
-121 120 -123 0
-121 -120 123 0
122 120 146 0
122 -120 -146 0
-122 120 -146 0
-122 -120 146 0
124 123 126 0
124 -123 -126 0
-124 123 -126 0
-124 -123 126 0
125 123 149 0
125 -123 -149 0
-125 123 -149 0
-125 -123 149 0
127 126 129 0
127 -126 -129 0
-127 126 -129 0
-127 -126 129 0
128 126 152 0
128 -126 -152 0
-128 126 -152 0
-128 -126 152 0
130 129 155 0
130 -129 -155 0
-130 129 -155 0
-130 -129 155 0
132 131 134 0
132 -131 -134 0
-132 131 -134 0
-132 -131 134 0
133 131 157 0
133 -131 -157 0
-133 131 -157 0
-133 -131 157 0
135 134 137 0
135 -134 -137 0
-135 134 -137 0
-135 -134 137 0
136 134 160 0
136 -134 -160 0
-136 134 -160 0
-136 -134 160 0
138 137 140 0
138 -137 -140 0
-138 137 -140 0
-138 -137 140 0
139 137 163 0
139 -137 -163 0
-139 137 -163 0
-139 -137 163 0
141 140 143 0
141 -140 -143 0
-141 140 -143 0
-141 -140 143 0
142 140 166 0
142 -140 -166 0
-142 140 -166 0
-142 -140 166 0
144 143 146 0
144 -143 -146 0
-144 143 -146 0
-144 -143 146 0
145 143 169 0
145 -143 -169 0
-145 143 -169 0
-145 -143 169 0
147 146 149 0
147 -146 -149 0
-147 146 -149 0
-147 -146 149 0
148 146 172 0
148 -146 -172 0
-148 146 -172 0
-148 -146 172 0
150 149 152 0
150 -149 -152 0
-150 149 -152 0
-150 -149 152 0
151 149 175 0
151 -149 -175 0
-151 149 -175 0
-151 -149 175 0
153 152 155 0
153 -152 -155 0
-153 152 -155 0
-153 -152 155 0
154 152 178 0
154 -152 -178 0
-154 152 -178 0
-154 -152 178 0
156 155 181 0
156 -155 -181 0
-156 155 -181 0
-156 -155 181 0
158 157 160 0
158 -157 -160 0
-158 157 -160 0
-158 -157 160 0
159 157 183 0
159 -157 -183 0
-159 157 -183 0
-159 -157 183 0
161 160 163 0
161 -160 -163 0
-161 160 -163 0
-161 -160 163 0
162 160 186 0
162 -160 -186 0
-162 160 -186 0
-162 -160 186 0
164 163 166 0
164 -163 -166 0
-164 163 -166 0
-164 -163 166 0
165 163 189 0
165 -163 -189 0
-165 163 -189 0
-165 -163 189 0
167 166 169 0
167 -166 -169 0
-167 166 -169 0
-167 -166 169 0
168 166 192 0
168 -166 -192 0
-168 166 -192 0
-168 -166 192 0
170 169 172 0
170 -169 -172 0
-170 169 -172 0
-170 -169 172 0
171 169 195 0
171 -169 -195 0
-171 169 -195 0
-171 -169 195 0
173 172 175 0
173 -172 -175 0
-173 172 -175 0
-173 -172 175 0
174 172 198 0
174 -172 -198 0
-174 172 -198 0
-174 -172 198 0
176 175 178 0
176 -175 -178 0
-176 175 -178 0
-176 -175 178 0
177 175 201 0
177 -175 -201 0
-177 175 -201 0
-177 -175 201 0
179 178 181 0
179 -178 -181 0
-179 178 -181 0
-179 -178 181 0
180 178 204 0
180 -178 -204 0
-180 178 -204 0
-180 -178 204 0
182 181 207 0
182 -181 -207 0
-182 181 -207 0
-182 -181 207 0
184 183 186 0
184 -183 -186 0
-184 183 -186 0
-184 -183 186 0
185 183 209 0
185 -183 -209 0
-185 183 -209 0
-185 -183 209 0
187 186 189 0
187 -186 -189 0
-187 186 -189 0
-187 -186 189 0
188 186 211 0
188 -186 -211 0
-188 186 -211 0
-188 -186 211 0
190 189 192 0
190 -189 -192 0
-190 189 -192 0
-190 -189 192 0
191 189 213 0
191 -189 -213 0
-191 189 -213 0
-191 -189 213 0
193 192 195 0
193 -192 -195 0
-193 192 -195 0
-193 -192 195 0
194 192 215 0
194 -192 -215 0
-194 192 -215 0
-194 -192 215 0
196 195 198 0
196 -195 -198 0
-196 195 -198 0
-196 -195 198 0
197 195 217 0
197 -195 -217 0
-197 195 -217 0
-197 -195 217 0
199 198 201 0
199 -198 -201 0
-199 198 -201 0
-199 -198 201 0
200 198 219 0
200 -198 -219 0
-200 198 -219 0
-200 -198 219 0
202 201 204 0
202 -201 -204 0
-202 201 -204 0
-202 -201 204 0
203 201 221 0
203 -201 -221 0
-203 201 -221 0
-203 -201 221 0
205 204 207 0
205 -204 -207 0
-205 204 -207 0
-205 -204 207 0
206 204 223 0
206 -204 -223 0
-206 204 -223 0
-206 -204 223 0
208 207 225 0
208 -207 -225 0
-208 207 -225 0
-208 -207 225 0
210 209 211 0
210 -209 -211 0
-210 209 -211 0
-210 -209 211 0
212 211 213 0
212 -211 -213 0
-212 211 -213 0
-212 -211 213 0
214 213 215 0
214 -213 -215 0
-214 213 -215 0
-214 -213 215 0
216 215 217 0
216 -215 -217 0
-216 215 -217 0
-216 -215 217 0
218 217 219 0
218 -217 -219 0
-218 217 -219 0
-218 -217 219 0
220 219 221 0
220 -219 -221 0
-220 219 -221 0
-220 -219 221 0
222 221 223 0
222 -221 -223 0
-222 221 -223 0
-222 -221 223 0
224 223 225 0
224 -223 -225 0
-224 223 -225 0
-224 -223 225 0
